c Sudoku solution
p cnf 729 0
151 0
218 0
244 0
327 0
363 0
375 0
381 0
479 0
516 0
537 0
541 0
574 0
583 0
647 0
688 0
695 0
592 0
726 0
742 0
753 0
443 0
765 0
145 0
787 0
486 0
671 0
497 0
778 0
885 0
919 0
817 0
799 0
415 0
555 0
711 0
734 0
923 0
935 0
225 0
231 0
421 0
976 0
982 0
873 0
948 0
293 0
289 0
184 0
314 0
624 0
112 0
129 0
133 0
336 0
177 0
272 0
352 0
168 0
349 0
196 0
398 0
613 0
822 0
838 0
528 0
432 0
639 0
569 0
846 0
656 0
662 0
257 0
266 0
954 0
859 0
967 0
861 0
894 0
991 0
458 0
464 0
